
Log started (V11.0.0) Wed Apr 16 12:57:15 2008

Tried aggregator 1 time.
Reduced MIP has 110 rows, 1001 columns, and 2010 nonzeros.
Presolve time =    0.02 sec.
Clique table members: 100.
MIP emphasis: balance optimality and feasibility.
MIP search method: dynamic search.
Parallel mode: none, using 1 thread.
Root relaxation solution time =    0.02 sec.

        Nodes                                         Cuts/
   Node  Left     Objective  IInf  Best Integer     Best Node    ItCnt     Gap

*     0+    0                        14788.0000     1101.0139      190   92.55%
*     0+    0                         1169.0000     1101.0139      190    5.82%
      0     0     1102.0000    19     1169.0000      Fract: 6      203    5.73%
*     0+    0                         1154.0000     1102.0000      203    4.51%
      0     0     1102.0000    21     1154.0000     Covers: 1      256    4.51%
      0     0     1102.2045    22     1154.0000     Covers: 2      292    4.49%
      0     0     1102.8540    36     1154.0000       Cuts: 6      327    4.43%
      0     0     1103.0443    40     1154.0000       Cuts: 6      348    4.42%
      0     0     1103.2198    45     1154.0000       Cuts: 7      366    4.40%
      0     0     1103.3359    43     1154.0000       Cuts: 6      378    4.39%
      0     0     1103.4373    43     1154.0000       Cuts: 5      394    4.38%
      0     0     1103.5967    45     1154.0000    MIRcuts: 2      412    4.37%
      0     0     1103.6386    48     1154.0000    MIRcuts: 1      420    4.36%
*     0+    0                         1116.0000     1103.6386      420    1.11%
      0     2     1104.0000    43     1116.0000     1103.6386      420    1.11%
    100    80     1108.0000    20     1116.0000     1104.0000     2857    1.08%
    200   133     1112.2193    23     1116.0000     1104.0000     5892    1.08%
    300   211     1108.0000    28     1116.0000     1104.0000     7743    1.08%
    400   274     1114.0000    22     1116.0000     1104.0000     9668    1.08%
    500   349     1107.0000    30     1116.0000     1105.0622    12758    0.98%
    600   351     1106.0000    30     1116.0000     1106.0000    14508    0.90%
    700   356     1112.0000    26     1116.0000     1106.0000    16863    0.90%
    800   370     1113.0000    20     1116.0000     1106.0000    18609    0.90%
    900   373     1110.0000    33     1116.0000     1106.0000    24601    0.90%
*   911+  265                         1113.0000     1106.0000    24815    0.63%
   1000   297     1112.0000    25     1113.0000     1106.0000    29325    0.63%
Elapsed time =   6.22 sec. (tree size =  0.15 MB, solutions = 5)
   1100   375     1112.0000    14     1113.0000     1106.0000    34519    0.63%
*  1121+  156                         1110.0000     1106.0000    35555    0.36%
   1200   213     1106.4871    60     1110.0000     1106.0000    38530    0.36%
*  1291+  168                         1109.0000     1106.0000    44439    0.27%
   1300   174     1107.0000    22     1109.0000     1106.0000    45573    0.27%
   1400   236     1108.0000    41     1109.0000     1106.0000    55113    0.27%
   1500   297     1107.0000    35     1109.0000     1106.0000    64234    0.27%
   1600   363     1108.0000    63     1109.0000     1107.0000    71439    0.18%
   1700   430     1108.0000    40     1109.0000     1107.0000    79361    0.18%
   1800   478        cutoff           1109.0000     1107.0000    89064    0.18%
   1900   538    infeasible           1109.0000     1107.0000    96763    0.18%
   2000   583     1108.0000    37     1109.0000     1107.0000   104886    0.18%
Elapsed time =  13.84 sec. (tree size =  0.31 MB, solutions = 7)
   2100   638     1108.0000    29     1109.0000     1107.0000   114005    0.18%
   2200   691     1108.0000    31     1109.0000     1107.0000   122841    0.18%
   2300   728     1107.0000    33     1109.0000     1107.0000   133713    0.18%
   2400   773     1108.0000    28     1109.0000     1107.0000   141919    0.18%
   2500   822     1108.0000    30     1109.0000     1107.0000   149932    0.18%
   2600   878     1108.0000    32     1109.0000     1107.0000   158251    0.18%
   2700   909        cutoff           1109.0000     1107.0000   168841    0.18%
   2800   957     1108.0000    37     1109.0000     1107.0000   179058    0.18%
   2900  1017     1108.0000    52     1109.0000     1107.0000   190438    0.18%
   3000  1055     1108.0000    44     1109.0000     1107.0000   205463    0.18%
Elapsed time =  27.34 sec. (tree size =  0.58 MB, solutions = 7)
   3100  1095    infeasible           1109.0000     1107.0000   218319    0.18%
   3200  1131     1108.0000    43     1109.0000     1107.0000   231530    0.18%
   3300  1158    infeasible           1109.0000     1107.0000   246449    0.18%
   3400  1183     1107.0000    59     1109.0000     1107.0000   261373    0.18%
   3500  1238     1107.0000    51     1109.0000     1107.0000   275533    0.18%
   3600  1281     1107.6714    59     1109.0000     1107.0000   290991    0.18%
   3700  1325     1108.0000    63     1109.0000     1107.0000   306447    0.18%
   3800  1398     1108.0000    46     1109.0000     1107.0000   316164    0.18%
   3900  1424     1107.3120    64     1109.0000     1107.0000   330300    0.18%
   4000  1470    infeasible           1109.0000     1107.0000   345417    0.18%
Elapsed time =  47.08 sec. (tree size =  0.81 MB, solutions = 7)
   4100  1501     1108.0000    60     1109.0000     1107.0000   360740    0.18%
   4200  1549     1108.0000    36     1109.0000     1107.0000   374822    0.18%
   4300  1576    infeasible           1109.0000     1108.0000   390870    0.09%
   4400  1630     1108.0000    37     1109.0000     1108.0000   401954    0.09%
   4500  1682     1108.0000    40     1109.0000     1108.0000   413114    0.09%
   4600  1714    infeasible           1109.0000     1108.0000   424229    0.09%
   4700  1726    infeasible           1109.0000     1108.0000   438940    0.09%
   4800  1737     1108.0000    28     1109.0000     1108.0000   452832    0.09%
   4900  1728     1108.0000    29     1109.0000     1108.0000   467481    0.09%
   5000  1728     1108.0000    38     1109.0000     1108.0000   479856    0.09%
Elapsed time =  67.33 sec. (tree size =  0.95 MB, solutions = 7)
   5100  1718     1108.0000    54     1109.0000     1108.0000   498575    0.09%
   5200  1704     1108.0000    32     1109.0000     1108.0000   516419    0.09%
   5300  1712    infeasible           1109.0000     1108.0000   531384    0.09%
   5400  1683     1108.0000    38     1109.0000     1108.0000   554479    0.09%
   5500  1675     1108.0000    31     1109.0000     1108.0000   573221    0.09%
   5600  1647    infeasible           1109.0000     1108.0000   590985    0.09%
   5700  1655     1108.0000    42     1109.0000     1108.0000   608270    0.09%
   5800  1604    infeasible           1109.0000     1108.0000   628360    0.09%
   5900  1597    infeasible           1109.0000     1108.0000   647185    0.09%
   6000  1589     1108.0000    37     1109.0000     1108.0000   661778    0.09%
Elapsed time =  95.38 sec. (tree size =  0.88 MB, solutions = 7)
   6100  1586     1108.0000    56     1109.0000     1108.0000   675354    0.09%
   6200  1600    infeasible           1109.0000     1108.0000   689472    0.09%
   6300  1586    infeasible           1109.0000     1108.0000   705572    0.09%
   6400  1580     1108.0000    42     1109.0000     1108.0000   722583    0.09%
   6500  1590    infeasible           1109.0000     1108.0000   738973    0.09%
   6600  1556     1108.0000    38     1109.0000     1108.0000   757086    0.09%
   6700  1534     1108.0000    41     1109.0000     1108.0000   774332    0.09%
   6800  1538    infeasible           1109.0000     1108.0000   788414    0.09%
   6900  1525        cutoff           1109.0000     1108.0000   805165    0.09%
   7000  1474    infeasible           1109.0000     1108.0000   825127    0.09%
Elapsed time = 120.00 sec. (tree size =  0.83 MB, solutions = 7)
   7100  1477     1108.0000    34     1109.0000     1108.0000   840295    0.09%
   7200  1463    infeasible           1109.0000     1108.0000   856805    0.09%
   7300  1483    infeasible           1109.0000     1108.0000   872049    0.09%
   7400  1463    infeasible           1109.0000     1108.0000   893301    0.09%
   7500  1460    infeasible           1109.0000     1108.0000   909897    0.09%
   7600  1430    infeasible           1109.0000     1108.0000   931521    0.09%
   7700  1374    infeasible           1109.0000     1108.0000   953932    0.09%
   7800  1359    infeasible           1109.0000     1108.0000   972892    0.09%
   7900  1327    infeasible           1109.0000     1108.0000   992975    0.09%
   8000  1339        cutoff           1109.0000     1108.0000  1011171    0.09%
Elapsed time = 148.09 sec. (tree size =  0.76 MB, solutions = 7)
   8100  1341     1108.0000    26     1109.0000     1108.0000  1024762    0.09%
   8200  1297    infeasible           1109.0000     1108.0000  1046375    0.09%
   8300  1297    infeasible           1109.0000     1108.0000  1062449    0.09%
   8400  1269    infeasible           1109.0000     1108.0000  1082410    0.09%
   8500  1247    infeasible           1109.0000     1108.0000  1099141    0.09%
   8600  1231    infeasible           1109.0000     1108.0000  1119513    0.09%
   8700  1227        cutoff           1109.0000     1108.0000  1135470    0.09%
   8800  1231    infeasible           1109.0000     1108.0000  1152226    0.09%
   8900  1219    infeasible           1109.0000     1108.0000  1169920    0.09%
   9000  1227    infeasible           1109.0000     1108.0000  1186501    0.09%
Elapsed time = 174.84 sec. (tree size =  0.70 MB, solutions = 7)
   9100  1211    infeasible           1109.0000     1108.0000  1209106    0.09%
   9200  1206    infeasible           1109.0000     1108.0000  1226949    0.09%
   9300  1178    infeasible           1109.0000     1108.0000  1245763    0.09%
   9400  1160     1108.0000    42     1109.0000     1108.0000  1264985    0.09%
   9500  1133     1108.0000    71     1109.0000     1108.0000  1289205    0.09%
   9600  1077    infeasible           1109.0000     1108.0000  1309411    0.09%
   9700  1045     1108.0000    40     1109.0000     1108.0000  1331308    0.09%
   9800  1042    infeasible           1109.0000     1108.0000  1344805    0.09%
   9900  1041    infeasible           1109.0000     1108.0000  1363021    0.09%
  10000   992    infeasible           1109.0000     1108.0000  1383299    0.09%
Elapsed time = 203.34 sec. (tree size =  0.57 MB, solutions = 7)
  10100   976    infeasible           1109.0000     1108.0000  1405902    0.09%
  10200   968    infeasible           1109.0000     1108.0000  1421102    0.09%
  10300   903    infeasible           1109.0000     1108.0000  1442353    0.09%
  10400   893        cutoff           1109.0000     1108.0000  1461765    0.09%
  10500   868     1108.0000    57     1109.0000     1108.0000  1478518    0.09%
  10600   868    infeasible           1109.0000     1108.0000  1495404    0.09%
  10700   816     1108.0000    32     1109.0000     1108.0000  1517112    0.09%
  10800   779    infeasible           1109.0000     1108.0000  1539999    0.09%
  10900   731    infeasible           1109.0000     1108.0000  1565804    0.09%
  11000   699    infeasible           1109.0000     1108.0000  1589341    0.09%
Elapsed time = 233.67 sec. (tree size =  0.42 MB, solutions = 7)
  11100   655    infeasible           1109.0000     1108.0000  1610054    0.09%
  11200   621    infeasible           1109.0000     1108.0000  1634107    0.09%
  11300   567    infeasible           1109.0000     1108.0000  1657140    0.09%
  11400   527    infeasible           1109.0000     1108.0000  1674492    0.09%
  11500   483    infeasible           1109.0000     1108.0000  1698287    0.09%
  11600   433    infeasible           1109.0000     1108.0000  1723398    0.09%
  11700   401     1108.0000    46     1109.0000     1108.0000  1741235    0.09%
  11800   345     1108.0000    43     1109.0000     1108.0000  1765230    0.09%
  11900   313    infeasible           1109.0000     1108.0000  1787497    0.09%
  12000   289    infeasible           1109.0000     1108.0000  1809690    0.09%
Elapsed time = 266.02 sec. (tree size =  0.19 MB, solutions = 7)
  12100   262     1108.0000    52     1109.0000     1108.0000  1825581    0.09%
  12200   226    infeasible           1109.0000     1108.0000  1851089    0.09%
  12300   188    infeasible           1109.0000     1108.0000  1876837    0.09%
  12400   178    infeasible           1109.0000     1108.0000  1893975    0.09%
  12500   128     1108.0000    58     1109.0000     1108.0000  1922788    0.09%
  12600    92    infeasible           1109.0000     1108.0000  1951527    0.09%
  12700    40    infeasible           1109.0000     1108.0000  1982455    0.09%
  12800    22     1108.0000    47     1109.0000     1108.0000  2006860    0.09%
  12900    10    infeasible           1109.0000     1108.0000  2029983    0.09%

Cover cuts applied:  534
Mixed integer rounding cuts applied:  13
Gomory fractional cuts applied:  3

Solution pool: 7 solutions saved.

MIP - Integer optimal solution:  Objective = 1.1090000000e+003
Solution time =  299.42 sec.  Iterations = 2038166  Nodes = 12953


Incumbent solution
Variable Name           Solution Value
Cmax                       1109.000000
X_1_7                         1.000000
X_2_2                         1.000000
X_3_1                         1.000000
X_4_9                         1.000000
X_5_4                         1.000000
X_6_3                         1.000000
X_7_8                         1.000000
X_8_4                         1.000000
X_9_2                         1.000000
X_10_8                        1.000000
X_11_6                        1.000000
X_12_2                        1.000000
X_13_6                        1.000000
X_14_10                       1.000000
X_15_6                        1.000000
X_16_10                       1.000000
X_17_7                        1.000000
X_18_2                        1.000000
X_19_9                        1.000000
X_20_8                        1.000000
X_21_6                        1.000000
X_22_6                        1.000000
X_23_6                        1.000000
X_24_8                        1.000000
X_25_9                        1.000000
X_26_5                        1.000000
X_27_1                        1.000000
X_28_3                        1.000000
X_29_2                        1.000000
X_30_5                        1.000000
X_31_10                       1.000000
X_32_10                       1.000000
X_33_6                        1.000000
X_34_7                        1.000000
X_35_9                        1.000000
X_36_7                        1.000000
X_37_2                        1.000000
X_38_2                        1.000000
X_39_5                        1.000000
X_40_5                        1.000000
X_41_4                        1.000000
X_42_4                        1.000000
X_43_1                        1.000000
X_44_9                        1.000000
X_45_7                        1.000000
X_46_3                        1.000000
X_47_3                        1.000000
X_48_8                        1.000000
X_49_2                        1.000000
X_50_3                        1.000000
X_51_5                        1.000000
X_52_10                       1.000000
X_53_7                        1.000000
X_54_9                        1.000000
X_55_9                        1.000000
X_56_7                        1.000000
X_57_3                        1.000000
X_58_7                        1.000000
X_59_4                        1.000000
X_60_9                        1.000000
X_61_6                        1.000000
X_62_3                        1.000000
X_63_4                        1.000000
X_64_8                        1.000000
X_65_10                       1.000000
X_66_3                        1.000000
X_67_10                       1.000000
X_68_4                        1.000000
X_69_5                        1.000000
X_70_4                        1.000000
X_71_8                        1.000000
X_72_8                        1.000000
X_73_2                        1.000000
X_74_5                        1.000000
X_75_2                        1.000000
X_76_1                        1.000000
X_77_5                        1.000000
X_78_4                        1.000000
X_79_1                        1.000000
X_80_9                        1.000000
X_81_7                        1.000000
X_82_10                       1.000000
X_83_1                        1.000000
X_84_4                        1.000000
X_85_1                        1.000000
X_86_1                        1.000000
X_87_1                        1.000000
X_88_10                       1.000000
X_89_6                        1.000000
X_90_10                       1.000000
X_91_8                        1.000000
X_92_7                        1.000000
X_93_5                        1.000000
X_94_3                        1.000000
X_95_5                        1.000000
X_96_8                        1.000000
X_97_3                        1.000000
X_98_9                        1.000000
X_99_1                        1.000000
X_100_6                       1.000000
All other variables in the range 1-1001 are 0.
